38 51 26 36 6 76 96 4 20 77 37 9 16 69 13 29 85 22 50 31 53 71 91 86 56 10 63 72 40 3 14 59 30 52 83 47 5 54 45 33 23 68 98 35 39 84 57 88 43 19 80 41 97 42 90 25 87 11 44 21 32 7 92 61 67 58 0 27 81 75 78 15 62 55 34 73 99 17 48 46 82 8 18 12 2 65 89 1 60 93 95 28 64 79 70 74 66 24 49 94